10  724
1   4   21    7    45    20    
2   4   41    1    8    25    
3   4   16    48    40    3    
4   4   26    38    44    18    
5   4   32    37    27    2    
6   7   11    12    33    39    15    50    30    
7   6   42    47    13    28    24    5    
8   5   46    43    23    34    29    
9   7   36    31    14    17    9    4    35    
10   5   6    22    49    19    10    

